Li120 Cl40 O40                          
    1.000000000000000     
    -0.0000015333267506   -0.0000073095971120    3.8502092697834680
     3.8979531445924001   -7.7955578012196627    0.0000133498691630
    64.9544291605732838   32.4757855257803811   -0.0000857148234292
   Li   Cl   O 
   120    40    40
Direct
  0.4999511431435555  0.4021982190181720  0.0884813789074298
  0.5000172241663898  0.4016951291773394  0.2086132290246075
  0.5000073145959618  0.4046706939810200  0.3284065651724379
  0.5000025076277606  0.4267573231959186  0.4500806479639713
  0.4999848097952496  0.0054689933511389  0.0656494401992707
  0.4999990059076801  0.0011097304990929  0.1845807892191277
  0.5000338947462982  0.0040926664125654  0.3044513747676064
  0.5000027474833334  0.0006263049347611  0.4233895433992283
  0.5000013470054918  0.5778678173475920  0.0389326803675328
  0.5000103470824687  0.6009587179213530  0.1606315800017553
  0.5000155750632119  0.6033959579369517  0.2804587634676089
  0.5000093714394276  0.6032930068691524  0.4004850248750307
  0.4999868401502735  0.2016903469538654  0.1367052448797093
  0.4999997398853882  0.2028488376059156  0.2565254834620601
  0.5000119114814231  0.2084768603768241  0.3764291433340163
  0.5000062421637211  0.7973398700701143  0.1125920218256618
  0.5000113252692918  0.8023924091433354  0.2325585929193186
  0.5000177888435392  0.8044636668009041  0.3523012968896225
  0.4999507511772081  0.7026724327255853  0.0757715523295646
  0.5000044908986652  0.7014723982482947  0.1965963825693793
  0.5000425750959743  0.7046022387969254  0.3163544838537717
  0.4999816932391853  0.7039802665715528  0.4367248749969715
  0.4999461299751482  0.3016843922844789  0.0522449679894094
  0.5000032658491246  0.3008295555376178  0.1727065926698107
  0.5000051768438960  0.3036853716725931  0.2924937116153367
  0.4999750214539018  0.3032434490538188  0.4132144257912421
  0.5000061984370663  0.9011000741590149  0.1485498752503993
  0.5000122727019499  0.9031096215899758  0.2685140048564139
  0.5000068590632335  0.9074664534075068  0.3876757517104579
  0.4999911880130889  0.5005232895091563  0.1245743902864221
  0.5000141389891852  0.5027458999555671  0.2445296101657348
  0.4999863049796768  0.5055450206326149  0.3643874886270300
  0.4999723990270120  0.0981346943888590  0.1013468051320279
  0.5000000580345983  0.1021126284522000  0.2205719611808738
  0.5000395823119116  0.1047502325000148  0.3404467958841465
  0.5000077712557230  0.1148392577887866  0.4567372230687479
 -0.0000807656729806  0.5012012900923118  0.0641466359914550
  0.0000099925202136  0.5012965771977880  0.1846550649323725
  0.0000013332031918  0.5041220029298595  0.3044161422893264
 -0.0000030988042590  0.5049146402695430  0.4249168840029340
  0.9999720692849796  0.1060969032622804  0.0417635177588924
 -0.0000088824169252  0.1007244497427234  0.1605833764291238
  0.0000109794791148  0.1037351298519926  0.2804896187799392
 -0.0000039233301722  0.1083827569243618  0.4001690946658076
 -0.0000049596608655  0.7001071991939641  0.1367274263846065
  0.0000123545172974  0.7032585830312261  0.2565300706315030
  0.0000029766213787  0.7039156325542121  0.3763211795218321
 -0.0000138857814868  0.3017425997941091  0.1126496965458521
  0.0000078788168449  0.3024484227148564  0.2325962551869329
  0.0000201986332740  0.3055507963543567  0.3523475661060667
  0.9999876008608106  0.8973177706246904  0.0888627438742553
  0.0000046479369063  0.9019870024833482  0.2086002255036666
  0.0000427284004904  0.9050766119931387  0.3284403043512913
 -0.0000105849396109  0.9001705936396500  0.4472178503225216
  0.5000019184206833  0.5978439808995900  0.5884779180326705
  0.4999976098803053  0.5983480764187542  0.7086105392851798
  0.5000005314271402  0.5953242758283011  0.8284026209559683
  0.5000054636429078  0.5730936526969671  0.9500826073067105
  0.5000097562065873  0.9945891249613010  0.5656509421001418
  0.5000008291996180 -0.0010494362091192  0.6845825146498508
  0.4999877128828712  0.9958792891545040  0.8044472526152614
  0.5000198848122183  0.9992714640066833  0.9233848575082046
  0.5000054478323548  0.4222336298465102  0.5389312353561106
  0.4999972672775160  0.3990894245148318  0.6606342947876611
  0.4999814297160463  0.3966001681183086  0.7804580023649929
  0.5000186383756332  0.3966397012674676  0.9004817320949161
  0.4999940297175303  0.7984011058662880  0.6367032883616863
  0.5000099496693121  0.7971573363687621  0.7565247454428412
  0.5000118653601898  0.7914480435587311  0.8764278525610353
  0.4999943603414234  0.2027334453919028  0.6125929902726884
  0.4999920417906706  0.1975784255561515  0.7325591827502237
  0.4999952965943045  0.1954489766568608  0.8522983566717534
  0.5000116771772637  0.2973781404979837  0.5757702176192193
  0.4999989601211821  0.2985759644553205  0.6966013127221220
  0.4999817000654762  0.2953854981473167  0.8163538533580039
  0.5000239197973979  0.2958799549921702  0.9367238263056242
  0.5000092679619174  0.6983828783949505  0.5522357198719626
  0.4999916615685791  0.6992376594972687  0.6727081590968822
  0.5000031684460005  0.6963087218506870  0.7924927816781711
  0.5000281827718341  0.6966474809510456  0.9132155632852081
  0.4999917760006953  0.0989451396874765  0.6485447089622961
  0.4999854365933711  0.0968920410437224  0.7685148337493392
  0.5000137550369516  0.0924572762529572  0.8876773257237013
  0.5000030590429074  0.4995605086159852  0.6245800043248114
  0.4999780308627244  0.4972427769626793  0.7445310589749420
  0.5000143642942465  0.4943823925272319  0.8643807526299477
  0.5000089652130844  0.9018980601387840  0.6013480818905412
  0.4999986743552846  0.8978736047911210  0.7205728060752865
  0.4999825229667495  0.8952044955872358  0.8404433010426920
  0.5000144042074938  0.8850443112192321  0.9567363780524648
  0.0000046205678753  0.4988564350141692  0.5641423751417951
 -0.0000044157953440  0.4987322787479704  0.6846578423479885
  0.0000132275923351  0.4958868162598685  0.8044157082987370
  0.0000117851388617  0.4949706299016030  0.9249136341324684
  0.0000006888605222  0.8940387370624331  0.5417593841052489
 -0.0000120028717094  0.8993164587396776  0.6605798958718382
 -0.0000139847853720  0.8962757929943732  0.7804858964378426
 -0.0000111118378149  0.8915005156203465  0.9001652866574730
  0.9999916343065264  0.2999519801803227  0.6367278627423267
 -0.0000102630749476  0.2967643429641967  0.7565322508896738
  0.0000108119112854  0.2959810594002479  0.8763167283308987
  0.0000092287243173  0.6982887518080901  0.6126480909660282
 -0.0000040321807026  0.6975444283749821  0.7325932226872545
  0.0000023843310460  0.6943880784894366  0.8523412988400381
 -0.0000111468027546  0.1027295493426927  0.5888627387216916
 -0.0000057779356657  0.0980120882163468  0.7085973350855508
 -0.0000079896406293  0.0949091882796922  0.8284410359468661
  0.0000170185472478  0.0997156387296562  0.9472170980284887
  0.4999870592276865  0.1880018381368660  0.0168843502145256
  0.5000161499854098  0.1829124059201104  0.9720753853619939
 -0.0000114603724656  0.6715337059801525  0.9704072491607215
  0.4999809511858311  0.7671035198343115  0.9945020076326586
  0.9999948671851807  0.6788929898613769  0.0189282848153658
  0.4999778321003865  0.8911171884237259  0.0322573706137301
  0.4999824715158547  0.8169706911908092  0.4720731858895536
  0.4999980730905493  0.8122733176393959  0.5168820278407786
 -0.0000343501521324  0.3283611979315821  0.4704065916864882
  0.5000169897487070  0.2328634639792939  0.4945051741702867
  0.5000097926792655  0.1090713412916878  0.5322719720221156
  0.0000062510236055  0.3212593059094621  0.5189201114827940
 -0.0000097650004927  0.5989527657881349  0.1006670609581993
  0.0000137687455458  0.6019041976092131  0.2205585927398621
  0.0000169870451074  0.6050667289723443  0.3404806580560354
 -0.0000026509303648  0.6087441292132688  0.4602598231642443
 -0.0000186898896931  0.1987973260936114  0.0760964935694733
  0.0000065177946492  0.2016554420863437  0.1966458574368080
  0.0000305729466719  0.2044467854230282  0.3164236077113734
 -0.0000025329181769  0.1993995337242152  0.4349872075729426
 -0.0000286525382208  0.8064249010335928  0.0540679069491375
  0.0000052075563900  0.8008070523725606  0.1726222762035303
  0.0000220497113599  0.8034177983156524  0.2924258336239139
 -0.0000001520666097  0.8069589557937127  0.4129145655450780
  0.9999917454592332  0.4005590826467013  0.1485599514679473
  0.0000103729799898  0.4031277945188697  0.2685239337446828
  0.0000005058049667  0.4067995609103172  0.3882921284895032
  0.9999910021534408  0.0014135293833231  0.1248936217474387
  0.0000080883438414  0.0025592920276034  0.2445458309106820
  0.0000208345569947  0.0041765846597328  0.3641349857510180
  0.0000017774593866  0.4010946716885371  0.6006651921188867
 -0.0000053431720612  0.3981031594028626  0.7205593416240825
 -0.0000072584000230  0.3948728687383135  0.8404765193245838
  0.0000080259847879  0.3911235332863572  0.9602532487170194
  0.0000054895545101  0.8012932297028600  0.5760933133464192
  0.0000026965475257  0.7983799115042739  0.6966447137121911
 -0.0000061379992106  0.7955128822416652  0.8164204232272386
  0.0000098195324981  0.8004562120257483  0.9349851914593957
  0.0000063419681547  0.1936854810904082  0.5540664562435040
  0.0000004966932531  0.1992415302053197  0.6726226883914193
 -0.0000189592880717  0.1965802690780536  0.7924243053952400
  0.0000148052407898  0.1929264559959948  0.9129141888373191
 -0.0000008106360514  0.5994814364848221  0.6485593999708243
 -0.0000057273747875  0.5968868894991103  0.7685224223693480
  0.0000178327651040  0.5931178277708502  0.8882869372258290
  0.0000005796157453  0.9986400145454725  0.6248937758884801
 -0.0000046070276529  0.9974436393956366  0.7445444692279595
 -0.0000003623632574  0.9957561960210303  0.8641334264881984
 -0.0000311927817329  0.3962835321045605  0.0286482991060039
  0.0000026074167138  0.0908379514834027  0.9945777281601499
  0.0000033975592903  0.6038397995399828  0.5286475461756396
  0.0000169391658522  0.9092201323123065  0.4945719183099738
  0.4999480583788609  0.4997595012578013  0.0643211666328486
  0.5000156388741953  0.5011602516429394  0.1846016155163855
  0.5000189254168483  0.5040479041679555  0.3044592052137927
  0.4999857474844109  0.5058107020850201  0.4246569244660107
  0.4999632567318019  0.0976441876951921  0.0402891576431562
  0.4999944780086460  0.1011360846469812  0.1606600613755574
  0.5000100212772187  0.1033693829538103  0.2804924806875951
  0.4999986776413711  0.1050454785973864  0.3999178897210630
  0.5000001976869388  0.7001998320308317  0.1366479053426440
  0.5000134465772176  0.7028590917760814  0.2565042631246356
  0.5000037876057396  0.7055562800285203  0.3764832528528150
  0.4999956334146026  0.3002509800717058  0.1125041414273012
  0.5000110839896569  0.3023312062850694  0.2325756742326137
  0.5000243660078070  0.3054289073204580  0.3523565749321050
  0.4999817259368325  0.9007666823905663  0.0891157485585491
  0.5000046473406542  0.9017758401953050  0.2085779003094031
  0.5000422520927836  0.9044122841962177  0.3283529867489706
  0.4999939825031561  0.9082011578668020  0.4487185205390173
  0.5000036237932158  0.5003023514563721  0.5643194964082805
  0.4999973945149677  0.4988928640251815  0.6846025734740564
  0.4999912629460899  0.4959432898875880  0.8044578452114669
  0.5000146785469618  0.4940642564104075  0.9246545745639434
  0.5000036552102312  0.9024936000193509  0.5402884817876474
  0.4999907223140909  0.8989212674961450  0.6606604510654585
  0.4999877656764846  0.8966287696950331  0.7804916156336280
  0.5000021904300315  0.8948544210242864  0.8999145942949071
  0.4999950993213466  0.2998564724912536  0.6366489839248698
  0.4999905016505329  0.2971361668460795  0.7565050091634351
  0.5000122504453270  0.2943693024480418  0.8764795225379370
  0.5000150751123797  0.6998157427108154  0.6125035029376078
  0.4999974920557214  0.6976693025654537  0.7325741522948936
  0.5000008404689490  0.6945231326305225  0.8523535031332202
  0.4999979145514641  0.0992865033288282  0.5891163545576097
  0.4999964811972870  0.0982362282604166  0.7085785722883094
  0.5000000013263708  0.0955445496143832  0.8283504573579273
  0.5000141768871597  0.0916913983804863  0.9487212263164870
  0.4999881482562762  0.7108314679533995  0.9706439957189081
  0.4999893768824579  0.7161326501048627  0.0185040535781588
  0.5000042768776243  0.2890603100676322  0.4706454671621687
  0.5000049895822835  0.2839569944191503  0.5185038897665813
 
  0.00000000E+00  0.00000000E+00  0.00000000E+00
  0.00000000E+00  0.00000000E+00  0.00000000E+00
  0.00000000E+00  0.00000000E+00  0.00000000E+00
  0.00000000E+00  0.00000000E+00  0.00000000E+00
  0.00000000E+00  0.00000000E+00  0.00000000E+00
  0.00000000E+00  0.00000000E+00  0.00000000E+00
  0.00000000E+00  0.00000000E+00  0.00000000E+00
  0.00000000E+00  0.00000000E+00  0.00000000E+00
  0.00000000E+00  0.00000000E+00  0.00000000E+00
  0.00000000E+00  0.00000000E+00  0.00000000E+00
  0.00000000E+00  0.00000000E+00  0.00000000E+00
  0.00000000E+00  0.00000000E+00  0.00000000E+00
  0.00000000E+00  0.00000000E+00  0.00000000E+00
  0.00000000E+00  0.00000000E+00  0.00000000E+00
  0.00000000E+00  0.00000000E+00  0.00000000E+00
  0.00000000E+00  0.00000000E+00  0.00000000E+00
  0.00000000E+00  0.00000000E+00  0.00000000E+00
  0.00000000E+00  0.00000000E+00  0.00000000E+00
  0.00000000E+00  0.00000000E+00  0.00000000E+00
  0.00000000E+00  0.00000000E+00  0.00000000E+00
  0.00000000E+00  0.00000000E+00  0.00000000E+00
  0.00000000E+00  0.00000000E+00  0.00000000E+00
  0.00000000E+00  0.00000000E+00  0.00000000E+00
  0.00000000E+00  0.00000000E+00  0.00000000E+00
  0.00000000E+00  0.00000000E+00  0.00000000E+00
  0.00000000E+00  0.00000000E+00  0.00000000E+00
  0.00000000E+00  0.00000000E+00  0.00000000E+00
  0.00000000E+00  0.00000000E+00  0.00000000E+00
  0.00000000E+00  0.00000000E+00  0.00000000E+00
  0.00000000E+00  0.00000000E+00  0.00000000E+00
  0.00000000E+00  0.00000000E+00  0.00000000E+00
  0.00000000E+00  0.00000000E+00  0.00000000E+00
  0.00000000E+00  0.00000000E+00  0.00000000E+00
  0.00000000E+00  0.00000000E+00  0.00000000E+00
  0.00000000E+00  0.00000000E+00  0.00000000E+00
  0.00000000E+00  0.00000000E+00  0.00000000E+00
  0.00000000E+00  0.00000000E+00  0.00000000E+00
  0.00000000E+00  0.00000000E+00  0.00000000E+00
  0.00000000E+00  0.00000000E+00  0.00000000E+00
  0.00000000E+00  0.00000000E+00  0.00000000E+00
  0.00000000E+00  0.00000000E+00  0.00000000E+00
  0.00000000E+00  0.00000000E+00  0.00000000E+00
  0.00000000E+00  0.00000000E+00  0.00000000E+00
  0.00000000E+00  0.00000000E+00  0.00000000E+00
  0.00000000E+00  0.00000000E+00  0.00000000E+00
  0.00000000E+00  0.00000000E+00  0.00000000E+00
  0.00000000E+00  0.00000000E+00  0.00000000E+00
  0.00000000E+00  0.00000000E+00  0.00000000E+00
  0.00000000E+00  0.00000000E+00  0.00000000E+00
  0.00000000E+00  0.00000000E+00  0.00000000E+00
  0.00000000E+00  0.00000000E+00  0.00000000E+00
  0.00000000E+00  0.00000000E+00  0.00000000E+00
  0.00000000E+00  0.00000000E+00  0.00000000E+00
  0.00000000E+00  0.00000000E+00  0.00000000E+00
  0.00000000E+00  0.00000000E+00  0.00000000E+00
  0.00000000E+00  0.00000000E+00  0.00000000E+00
  0.00000000E+00  0.00000000E+00  0.00000000E+00
  0.00000000E+00  0.00000000E+00  0.00000000E+00
  0.00000000E+00  0.00000000E+00  0.00000000E+00
  0.00000000E+00  0.00000000E+00  0.00000000E+00
  0.00000000E+00  0.00000000E+00  0.00000000E+00
  0.00000000E+00  0.00000000E+00  0.00000000E+00
  0.00000000E+00  0.00000000E+00  0.00000000E+00
  0.00000000E+00  0.00000000E+00  0.00000000E+00
  0.00000000E+00  0.00000000E+00  0.00000000E+00
  0.00000000E+00  0.00000000E+00  0.00000000E+00
  0.00000000E+00  0.00000000E+00  0.00000000E+00
  0.00000000E+00  0.00000000E+00  0.00000000E+00
  0.00000000E+00  0.00000000E+00  0.00000000E+00
  0.00000000E+00  0.00000000E+00  0.00000000E+00
  0.00000000E+00  0.00000000E+00  0.00000000E+00
  0.00000000E+00  0.00000000E+00  0.00000000E+00
  0.00000000E+00  0.00000000E+00  0.00000000E+00
  0.00000000E+00  0.00000000E+00  0.00000000E+00
  0.00000000E+00  0.00000000E+00  0.00000000E+00
  0.00000000E+00  0.00000000E+00  0.00000000E+00
  0.00000000E+00  0.00000000E+00  0.00000000E+00
  0.00000000E+00  0.00000000E+00  0.00000000E+00
  0.00000000E+00  0.00000000E+00  0.00000000E+00
  0.00000000E+00  0.00000000E+00  0.00000000E+00
  0.00000000E+00  0.00000000E+00  0.00000000E+00
  0.00000000E+00  0.00000000E+00  0.00000000E+00
  0.00000000E+00  0.00000000E+00  0.00000000E+00
  0.00000000E+00  0.00000000E+00  0.00000000E+00
  0.00000000E+00  0.00000000E+00  0.00000000E+00
  0.00000000E+00  0.00000000E+00  0.00000000E+00
  0.00000000E+00  0.00000000E+00  0.00000000E+00
  0.00000000E+00  0.00000000E+00  0.00000000E+00
  0.00000000E+00  0.00000000E+00  0.00000000E+00
  0.00000000E+00  0.00000000E+00  0.00000000E+00
  0.00000000E+00  0.00000000E+00  0.00000000E+00
  0.00000000E+00  0.00000000E+00  0.00000000E+00
  0.00000000E+00  0.00000000E+00  0.00000000E+00
  0.00000000E+00  0.00000000E+00  0.00000000E+00
  0.00000000E+00  0.00000000E+00  0.00000000E+00
  0.00000000E+00  0.00000000E+00  0.00000000E+00
  0.00000000E+00  0.00000000E+00  0.00000000E+00
  0.00000000E+00  0.00000000E+00  0.00000000E+00
  0.00000000E+00  0.00000000E+00  0.00000000E+00
  0.00000000E+00  0.00000000E+00  0.00000000E+00
  0.00000000E+00  0.00000000E+00  0.00000000E+00
  0.00000000E+00  0.00000000E+00  0.00000000E+00
  0.00000000E+00  0.00000000E+00  0.00000000E+00
  0.00000000E+00  0.00000000E+00  0.00000000E+00
  0.00000000E+00  0.00000000E+00  0.00000000E+00
  0.00000000E+00  0.00000000E+00  0.00000000E+00
  0.00000000E+00  0.00000000E+00  0.00000000E+00
  0.00000000E+00  0.00000000E+00  0.00000000E+00
  0.00000000E+00  0.00000000E+00  0.00000000E+00
  0.00000000E+00  0.00000000E+00  0.00000000E+00
  0.00000000E+00  0.00000000E+00  0.00000000E+00
  0.00000000E+00  0.00000000E+00  0.00000000E+00
  0.00000000E+00  0.00000000E+00  0.00000000E+00
  0.00000000E+00  0.00000000E+00  0.00000000E+00
  0.00000000E+00  0.00000000E+00  0.00000000E+00
  0.00000000E+00  0.00000000E+00  0.00000000E+00
  0.00000000E+00  0.00000000E+00  0.00000000E+00
  0.00000000E+00  0.00000000E+00  0.00000000E+00
  0.00000000E+00  0.00000000E+00  0.00000000E+00
  0.00000000E+00  0.00000000E+00  0.00000000E+00
  0.00000000E+00  0.00000000E+00  0.00000000E+00
  0.00000000E+00  0.00000000E+00  0.00000000E+00
  0.00000000E+00  0.00000000E+00  0.00000000E+00
  0.00000000E+00  0.00000000E+00  0.00000000E+00
  0.00000000E+00  0.00000000E+00  0.00000000E+00
  0.00000000E+00  0.00000000E+00  0.00000000E+00
  0.00000000E+00  0.00000000E+00  0.00000000E+00
  0.00000000E+00  0.00000000E+00  0.00000000E+00
  0.00000000E+00  0.00000000E+00  0.00000000E+00
  0.00000000E+00  0.00000000E+00  0.00000000E+00
  0.00000000E+00  0.00000000E+00  0.00000000E+00
  0.00000000E+00  0.00000000E+00  0.00000000E+00
  0.00000000E+00  0.00000000E+00  0.00000000E+00
  0.00000000E+00  0.00000000E+00  0.00000000E+00
  0.00000000E+00  0.00000000E+00  0.00000000E+00
  0.00000000E+00  0.00000000E+00  0.00000000E+00
  0.00000000E+00  0.00000000E+00  0.00000000E+00
  0.00000000E+00  0.00000000E+00  0.00000000E+00
  0.00000000E+00  0.00000000E+00  0.00000000E+00
  0.00000000E+00  0.00000000E+00  0.00000000E+00
  0.00000000E+00  0.00000000E+00  0.00000000E+00
  0.00000000E+00  0.00000000E+00  0.00000000E+00
  0.00000000E+00  0.00000000E+00  0.00000000E+00
  0.00000000E+00  0.00000000E+00  0.00000000E+00
  0.00000000E+00  0.00000000E+00  0.00000000E+00
  0.00000000E+00  0.00000000E+00  0.00000000E+00
  0.00000000E+00  0.00000000E+00  0.00000000E+00
  0.00000000E+00  0.00000000E+00  0.00000000E+00
  0.00000000E+00  0.00000000E+00  0.00000000E+00
  0.00000000E+00  0.00000000E+00  0.00000000E+00
  0.00000000E+00  0.00000000E+00  0.00000000E+00
  0.00000000E+00  0.00000000E+00  0.00000000E+00
  0.00000000E+00  0.00000000E+00  0.00000000E+00
  0.00000000E+00  0.00000000E+00  0.00000000E+00
  0.00000000E+00  0.00000000E+00  0.00000000E+00
  0.00000000E+00  0.00000000E+00  0.00000000E+00
  0.00000000E+00  0.00000000E+00  0.00000000E+00
  0.00000000E+00  0.00000000E+00  0.00000000E+00
  0.00000000E+00  0.00000000E+00  0.00000000E+00
  0.00000000E+00  0.00000000E+00  0.00000000E+00
  0.00000000E+00  0.00000000E+00  0.00000000E+00
  0.00000000E+00  0.00000000E+00  0.00000000E+00
  0.00000000E+00  0.00000000E+00  0.00000000E+00
  0.00000000E+00  0.00000000E+00  0.00000000E+00
  0.00000000E+00  0.00000000E+00  0.00000000E+00
  0.00000000E+00  0.00000000E+00  0.00000000E+00
  0.00000000E+00  0.00000000E+00  0.00000000E+00
  0.00000000E+00  0.00000000E+00  0.00000000E+00
  0.00000000E+00  0.00000000E+00  0.00000000E+00
  0.00000000E+00  0.00000000E+00  0.00000000E+00
  0.00000000E+00  0.00000000E+00  0.00000000E+00
  0.00000000E+00  0.00000000E+00  0.00000000E+00
  0.00000000E+00  0.00000000E+00  0.00000000E+00
  0.00000000E+00  0.00000000E+00  0.00000000E+00
  0.00000000E+00  0.00000000E+00  0.00000000E+00
  0.00000000E+00  0.00000000E+00  0.00000000E+00
  0.00000000E+00  0.00000000E+00  0.00000000E+00
  0.00000000E+00  0.00000000E+00  0.00000000E+00
  0.00000000E+00  0.00000000E+00  0.00000000E+00
  0.00000000E+00  0.00000000E+00  0.00000000E+00
  0.00000000E+00  0.00000000E+00  0.00000000E+00
  0.00000000E+00  0.00000000E+00  0.00000000E+00
  0.00000000E+00  0.00000000E+00  0.00000000E+00
  0.00000000E+00  0.00000000E+00  0.00000000E+00
  0.00000000E+00  0.00000000E+00  0.00000000E+00
  0.00000000E+00  0.00000000E+00  0.00000000E+00
  0.00000000E+00  0.00000000E+00  0.00000000E+00
  0.00000000E+00  0.00000000E+00  0.00000000E+00
  0.00000000E+00  0.00000000E+00  0.00000000E+00
  0.00000000E+00  0.00000000E+00  0.00000000E+00
  0.00000000E+00  0.00000000E+00  0.00000000E+00
  0.00000000E+00  0.00000000E+00  0.00000000E+00
  0.00000000E+00  0.00000000E+00  0.00000000E+00
  0.00000000E+00  0.00000000E+00  0.00000000E+00
  0.00000000E+00  0.00000000E+00  0.00000000E+00
  0.00000000E+00  0.00000000E+00  0.00000000E+00
  0.00000000E+00  0.00000000E+00  0.00000000E+00
  0.00000000E+00  0.00000000E+00  0.00000000E+00
  0.00000000E+00  0.00000000E+00  0.00000000E+00
  0.00000000E+00  0.00000000E+00  0.00000000E+00
