
1.00000000
                      36.74520000      21.21484800      59.14933600
                     -36.74520000      21.21484800      59.14933600
                       0.00000000     -42.42970400      59.14933600
Na O P Si Zr 
4093 12288 3 3069 2048 
Direct
               0.9237087    0.7187500    0.2637912 Na
               0.0487088    0.5937500    0.2637912 Na
               0.1737087    0.5937500    0.2637912 Na
               0.2987088    0.5937500    0.2637912 Na
               0.4237088    0.5937500    0.2637912 Na
               0.5487087    0.5937500    0.2637912 Na
               0.6737088    0.5937500    0.2637912 Na
               0.7987087    0.5937500    0.2637912 Na
               0.9237088    0.5937500    0.2637912 Na
               0.0487088    0.7187500    0.2637912 Na
               0.1737088    0.7187500    0.2637912 Na
               0.2987088    0.7187500    0.2637912 Na
               0.4237087    0.7187500    0.2637912 Na
               0.5487087    0.7187500    0.2637912 Na
               0.6737087    0.7187500    0.2637912 Na
               0.7987087    0.7187500    0.2637912 Na
               0.9237087    0.4687500    0.2637912 Na
               0.0487088    0.8437500    0.2637912 Na
               0.1737088    0.8437500    0.2637913 Na
               0.2987088    0.8437500    0.2637912 Na
               0.4237088    0.8437500    0.2637912 Na
               0.5487087    0.8437500    0.2637912 Na
               0.6737087    0.8437500    0.2637912 Na
               0.7987087    0.8437500    0.2637912 Na
               0.9237087    0.8437500    0.2637912 Na
               0.0487088    0.9687500    0.2637912 Na
               0.1737088    0.9687500    0.2637912 Na
               0.2987088    0.9687500    0.2637912 Na
               0.4237087    0.9687500    0.2637912 Na
               0.5487088    0.9687500    0.2637912 Na
               0.6737088    0.9687500    0.2637912 Na
               0.7987088    0.9687500    0.2637912 Na
               0.9237087    0.2187500    0.2637912 Na
               0.0487088    0.0937500    0.2637912 Na
               0.1737087    0.0937500    0.2637912 Na
               0.2987087    0.0937500    0.2637912 Na
               0.4237087    0.0937500    0.2637912 Na
               0.5487087    0.0937500    0.2637912 Na
               0.6737087    0.0937500    0.2637912 Na
               0.7987087    0.0937500    0.2637912 Na
               0.9237087    0.0937500    0.2637912 Na
               0.0487088    0.2187500    0.2637912 Na
               0.1737087    0.2187500    0.2637912 Na
               0.2987087    0.2187500    0.2637912 Na
               0.4237087    0.2187500    0.2637912 Na
               0.5487087    0.2187500    0.2637912 Na
               0.6737087    0.2187500    0.2637912 Na
               0.7987087    0.2187500    0.2637913 Na
               0.9237088    0.9687500    0.2637912 Na
               0.0487087    0.3437500    0.2637912 Na
               0.1737087    0.3437500    0.2637912 Na
               0.2987087    0.3437500    0.2637912 Na
               0.4237087    0.3437500    0.2637912 Na
               0.5487087    0.3437500    0.2637912 Na
               0.6737088    0.3437500    0.2637912 Na
               0.7987087    0.3437500    0.2637912 Na
               0.9237087    0.3437500    0.2637912 Na
               0.0487087    0.4687500    0.2637912 Na
               0.1737087    0.4687500    0.2637912 Na
               0.2987087    0.4687500    0.2637912 Na
               0.4237088    0.4687500    0.2637912 Na
               0.5487088    0.4687500    0.2637912 Na
               0.6737088    0.4687500    0.2637912 Na
               0.7987087    0.4687500    0.2637912 Na
               0.0487088    0.8437500    0.3887912 Na
               0.1737087    0.5937500    0.3887912 Na
               0.2987088    0.5937500    0.3887912 Na
               0.4237088    0.5937500    0.3887912 Na
               0.5487087    0.5937500    0.3887912 Na
               0.6737087    0.5937500    0.3887912 Na
               0.7987087    0.5937500    0.3887912 Na
               0.9237087    0.5937500    0.3887912 Na
               0.0487087    0.7187500    0.3887912 Na
               0.1737088    0.7187500    0.3887912 Na
               0.2987088    0.7187500    0.3887912 Na
               0.4237087    0.7187500    0.3887912 Na
               0.5487087    0.7187500    0.3887912 Na
               0.6737087    0.7187500    0.3887912 Na
               0.7987087    0.7187500    0.3887912 Na
               0.9237087    0.7187500    0.3887912 Na
               0.0487088    0.5937500    0.3887912 Na
               0.1737088    0.8437500    0.3887912 Na
               0.2987088    0.8437500    0.3887912 Na
               0.4237087    0.8437500    0.3887912 Na
               0.5487087    0.8437500    0.3887912 Na
               0.6737087    0.8437500    0.3887912 Na
               0.7987087    0.8437500    0.3887912 Na
               0.9237087    0.8437500    0.3887912 Na
               0.0487088    0.9687500    0.3887912 Na
               0.1737088    0.9687500    0.3887912 Na
               0.2987087    0.9687500    0.3887912 Na
               0.4237087    0.9687500    0.3887912 Na
               0.5487088    0.9687500    0.3887912 Na
               0.6737088    0.9687500    0.3887912 Na
               0.7987088    0.9687500    0.3887912 Na
               0.9237087    0.9687500    0.3887912 Na
               0.0487087    0.3437500    0.3887912 Na
               0.0487087    0.0937500    0.3887912 Na
               0.1737087    0.0937500    0.3887912 Na
               0.2987087    0.0937500    0.3887912 Na
               0.5487087    0.0937500    0.3887912 Na
               0.6737087    0.0937500    0.3887912 Na
               0.7987087    0.0937500    0.3887912 Na
               0.9237087    0.0937500    0.3887912 Na
               0.0487088    0.2187500    0.3887912 Na
               0.1737087    0.2187500    0.3887912 Na
               0.2987087    0.2187500    0.3887912 Na
               0.4237087    0.2187500    0.3887912 Na
               0.5487087    0.2187500    0.3887912 Na
               0.6737087    0.2187500    0.3887912 Na
               0.7987087    0.2187500    0.3887912 Na
               0.9237087    0.2187500    0.3887912 Na
               0.9237087    0.9687500    0.1387912 Na
               0.1737087    0.3437500    0.3887912 Na
               0.2987087    0.3437500    0.3887912 Na
               0.4237087    0.3437500    0.3887912 Na
               0.5487087    0.3437500    0.3887912 Na
               0.6737088    0.3437500    0.3887912 Na
               0.7987087    0.3437500    0.3887912 Na
               0.9237087    0.3437500    0.3887912 Na
               0.0487088    0.4687500    0.3887912 Na
               0.1737087    0.4687500    0.3887912 Na
               0.2987087    0.4687500    0.3887912 Na
               0.4237088    0.4687500    0.3887912 Na
               0.5487088    0.4687500    0.3887912 Na
               0.6737088    0.4687500    0.3887912 Na
               0.7987087    0.4687500    0.3887912 Na
               0.9237087    0.4687500    0.3887912 Na
               0.9237087    0.7187500    0.0137912 Na
               0.0487088    0.5937500    0.0137912 Na
               0.1737087    0.5937500    0.0137912 Na
               0.2987087    0.5937500    0.0137913 Na
               0.4237087    0.5937500    0.0137912 Na
               0.5487088    0.5937500    0.0137912 Na
               0.6737087    0.5937500    0.0137913 Na
               0.7987087    0.5937500    0.0137912 Na
               0.9237087    0.5937500    0.0137912 Na
               0.0487088    0.7187500    0.0137912 Na
               0.1737087    0.7187500    0.0137912 Na
               0.2987087    0.7187500    0.0137912 Na
               0.4237087    0.7187500    0.0137912 Na
               0.5487087    0.7187500    0.0137913 Na
               0.6737087    0.7187500    0.0137912 Na
               0.7987087    0.7187500    0.0137912 Na
               0.9237087    0.4687500    0.0137912 Na
               0.0487087    0.8437500    0.0137913 Na
               0.1737087    0.8437500    0.0137912 Na
               0.2987088    0.8437500    0.0137912 Na
               0.4237087    0.8437500    0.0137913 Na
               0.5487087    0.8437500    0.0137912 Na
               0.6737088    0.8437500    0.0137912 Na
               0.7987087    0.8437500    0.0137913 Na
               0.9237088    0.8437500    0.0137913 Na
               0.0487088    0.9687500    0.0137912 Na
               0.1737088    0.9687500    0.0137912 Na
               0.2987088    0.9687500    0.0137912 Na
               0.4237088    0.9687500    0.0137912 Na
               0.5487088    0.9687500    0.0137912 Na
               0.6737087    0.9687500    0.0137912 Na
               0.7987088    0.9687500    0.0137913 Na
               0.9237087    0.2187500    0.0137912 Na
               0.0487087    0.0937500    0.0137912 Na
               0.1737087    0.0937500    0.0137912 Na
               0.2987087    0.0937500    0.0137913 Na
               0.4237087    0.0937500    0.0137913 Na
               0.5487087    0.0937500    0.0137912 Na
               0.6737087    0.0937500    0.0137912 Na
               0.7987087    0.0937500    0.0137913 Na
               0.9237087    0.0937500    0.0137912 Na
               0.0487088    0.2187500    0.0137912 Na
               0.1737088    0.2187500    0.0137913 Na
               0.2987087    0.2187500    0.0137913 Na
               0.4237087    0.2187500    0.0137912 Na
               0.5487087    0.2187500    0.0137912 Na
               0.6737087    0.2187500    0.0137912 Na
               0.7987087    0.2187500    0.0137912 Na
               0.9237087    0.9687500    0.0137912 Na
               0.0487088    0.3437500    0.0137913 Na
               0.1737087    0.3437500    0.0137913 Na
               0.2987087    0.3437500    0.0137912 Na
               0.4237087    0.3437500    0.0137912 Na
               0.5487087    0.3437500    0.0137913 Na
               0.6737087    0.3437500    0.0137912 Na
               0.7987087    0.3437500    0.0137912 Na
               0.9237087    0.3437500    0.0137912 Na
               0.0487087    0.4687500    0.0137913 Na
               0.1737087    0.4687500    0.0137912 Na
               0.2987087    0.4687500    0.0137912 Na
               0.4237087    0.4687500    0.0137913 Na
               0.5487087    0.4687500    0.0137912 Na
               0.6737087    0.4687500    0.0137912 Na
               0.7987087    0.4687500    0.0137913 Na
               0.9237087    0.7187500    0.1387912 Na
               0.0487088    0.5937500    0.1387912 Na
               0.1737087    0.5937500    0.1387912 Na
               0.2987087    0.5937500    0.1387912 Na
               0.4237088    0.5937500    0.1387912 Na
               0.5487087    0.5937500    0.1387912 Na
               0.6737087    0.5937500    0.1387913 Na
               0.7987087    0.5937500    0.1387912 Na
               0.9237087    0.5937500    0.1387912 Na
               0.0487088    0.7187500    0.1387912 Na
               0.1737088    0.7187500    0.1387912 Na
               0.2987088    0.7187500    0.1387912 Na
               0.4237087    0.7187500    0.1387912 Na
               0.5487087    0.7187500    0.1387913 Na
               0.6737087    0.7187500    0.1387912 Na
               0.7987087    0.7187500    0.1387912 Na
               0.9237087    0.4687500    0.1387912 Na
               0.0487088    0.8437500    0.1387912 Na
               0.1737088    0.8437500    0.1387913 Na
               0.2987088    0.8437500    0.1387912 Na
               0.4237087    0.8437500    0.1387913 Na
               0.5487087    0.8437500    0.1387912 Na
               0.6737087    0.8437500    0.1387912 Na
               0.7987087    0.8437500    0.1387912 Na
               0.9237087    0.8437500    0.1387912 Na
               0.0487088    0.9687500    0.1387912 Na
               0.1737088    0.9687500    0.1387912 Na
               0.2987088    0.9687500    0.1387912 Na
               0.4237088    0.9687500    0.1387912 Na
               0.5487087    0.9687500    0.1387912 Na
               0.6737087    0.9687500    0.1387912 Na
               0.7987087    0.9687500    0.1387912 Na
               0.9237087    0.2187500    0.1387912 Na
               0.0487088    0.0937500    0.1387912 Na
               0.1737088    0.0937500    0.1387913 Na
               0.2987087    0.0937500    0.1387912 Na
               0.4237087    0.0937500    0.1387912 Na
               0.5487087    0.0937500    0.1387912 Na
               0.6737087    0.0937500    0.1387912 Na
               0.7987087    0.0937500    0.1387912 Na
               0.9237087    0.0937500    0.1387912 Na
               0.0487088    0.2187500    0.1387913 Na
               0.1737087    0.2187500    0.1387912 Na
               0.2987087    0.2187500    0.1387912 Na
               0.4237087    0.2187500    0.1387912 Na
               0.5487087    0.2187500    0.1387912 Na
               0.6737087    0.2187500    0.1387912 Na
               0.7987087    0.2187500    0.1387913 Na
               0.0487087    0.0937500    0.5137912 Na
               0.0487087    0.3437500    0.1387912 Na
               0.1737087    0.3437500    0.1387912 Na
               0.2987087    0.3437500    0.1387912 Na
               0.4237087    0.3437500    0.1387912 Na
               0.5487087    0.3437500    0.1387912 Na
               0.6737088    0.3437500    0.1387912 Na
               0.7987087    0.3437500    0.1387912 Na
               0.9237087    0.3437500    0.1387912 Na
               0.0487087    0.4687500    0.1387912 Na
               0.1737087    0.4687500    0.1387912 Na
               0.2987087    0.4687500    0.1387912 Na
               0.4237087    0.4687500    0.1387912 Na
               0.5487088    0.4687500    0.1387912 Na
               0.6737087    0.4687500    0.1387912 Na
               0.7987087    0.4687500    0.1387913 Na
               0.0487087    0.8437500    0.7637912 Na
               0.1737088    0.5937500    0.7637912 Na
               0.2987087    0.5937500    0.7637912 Na
               0.4237088    0.5937500    0.7637912 Na
               0.5487088    0.5937500    0.7637912 Na
               0.6737088    0.5937500    0.7637912 Na
               0.7987087    0.5937500    0.7637912 Na
               0.9237088    0.5937500    0.7637912 Na
               0.0487088    0.7187500    0.7637912 Na
               0.1737087    0.7187500    0.7637912 Na
               0.2987088    0.7187500    0.7637912 Na
               0.4237088    0.7187500    0.7637912 Na
               0.5487087    0.7187500    0.7637912 Na
               0.6737087    0.7187500    0.7637912 Na
               0.7987087    0.7187500    0.7637912 Na
               0.9237088    0.7187500    0.7637912 Na
               0.0487088    0.5937500    0.7637912 Na
               0.1737088    0.8437500    0.7637912 Na
               0.2987088    0.8437500    0.7637912 Na
               0.4237088    0.8437500    0.7637912 Na
               0.5487088    0.8437500    0.7637912 Na
               0.6737087    0.8437500    0.7637912 Na
               0.7987088    0.8437500    0.7637912 Na
               0.9237087    0.8437500    0.7637912 Na
               0.0487088    0.9687500    0.7637912 Na
               0.1737088    0.9687500    0.7637912 Na
               0.2987088    0.9687500    0.7637912 Na
               0.4237088    0.9687500    0.7637912 Na
               0.5487088    0.9687500    0.7637912 Na
               0.6737088    0.9687500    0.7637912 Na
               0.7987088    0.9687500    0.7637912 Na
               0.9237087    0.9687500    0.7637912 Na
               0.0487088    0.3437500    0.7637912 Na
               0.1737087    0.0937500    0.7637912 Na
               0.2987088    0.0937500    0.7637912 Na
               0.4237088    0.0937500    0.7637912 Na
               0.5487087    0.0937500    0.7637912 Na
               0.6737088    0.0937500    0.7637912 Na
               0.7987087    0.0937500    0.7637912 Na
               0.9237088    0.0937500    0.7637912 Na
               0.0487088    0.2187500    0.7637912 Na
               0.1737088    0.2187500    0.7637912 Na
               0.2987088    0.2187500    0.7637912 Na
               0.4237087    0.2187500    0.7637912 Na
               0.5487087    0.2187500    0.7637912 Na
               0.6737087    0.2187500    0.7637912 Na
               0.7987088    0.2187500    0.7637912 Na
               0.9237087    0.2187500    0.7637912 Na
               0.0487088    0.0937500    0.8887912 Na
               0.1737088    0.3437500    0.7637912 Na
               0.2987088    0.3437500    0.7637912 Na
               0.4237088    0.3437500    0.7637912 Na
               0.5487087    0.3437500    0.7637912 Na
               0.6737088    0.3437500    0.7637912 Na
               0.7987087    0.3437500    0.7637912 Na
               0.9237087    0.3437500    0.7637912 Na
               0.0487088    0.4687500    0.7637912 Na
               0.1737088    0.4687500    0.7637912 Na
               0.2987088    0.4687500    0.7637912 Na
               0.4237087    0.4687500    0.7637912 Na
               0.5487088    0.4687500    0.7637912 Na
               0.6737088    0.4687500    0.7637912 Na
               0.7987087    0.4687500    0.7637912 Na
               0.9237087    0.4687500    0.7637912 Na
               0.0487088    0.8437500    0.8887912 Na
               0.1737087    0.5937500    0.8887912 Na
               0.2987088    0.5937500    0.8887912 Na
               0.4237088    0.5937500    0.8887912 Na
               0.5487088    0.5937500    0.8887912 Na
               0.6737088    0.5937500    0.8887912 Na
               0.7987087    0.5937500    0.8887912 Na
               0.9237088    0.5937500    0.8887912 Na
               0.0487087    0.7187500    0.8887912 Na
               0.1737088    0.7187500    0.8887912 Na
               0.2987088    0.7187500    0.8887912 Na
               0.4237088    0.7187500    0.8887912 Na
               0.5487088    0.7187500    0.8887912 Na
               0.6737087    0.7187500    0.8887912 Na
               0.7987088    0.7187500    0.8887912 Na
               0.9237087    0.7187500    0.8887912 Na
               0.0487088    0.5937500    0.8887912 Na
               0.1737088    0.8437500    0.8887912 Na
               0.2987088    0.8437500    0.8887912 Na
               0.4237088    0.8437500    0.8887912 Na
               0.5487087    0.8437500    0.8887912 Na
               0.6737088    0.8437500    0.8887912 Na
               0.7987087    0.8437500    0.8887912 Na
               0.9237087    0.8437500    0.8887912 Na
               0.0487088    0.9687500    0.8887912 Na
               0.1737088    0.9687500    0.8887912 Na
               0.2987088    0.9687500    0.8887912 Na
               0.4237087    0.9687500    0.8887912 Na
               0.5487088    0.9687500    0.8887912 Na
               0.6737088    0.9687500    0.8887912 Na
               0.7987088    0.9687500    0.8887912 Na
               0.9237088    0.9687500    0.8887912 Na
               0.0487088    0.3437500    0.8887912 Na
               0.1737088    0.0937500    0.8887912 Na
               0.2987088    0.0937500    0.8887912 Na
               0.4237087    0.0937500    0.8887912 Na
               0.5487088    0.0937500    0.8887912 Na
               0.6737087    0.0937500    0.8887912 Na
               0.7987088    0.0937500    0.8887912 Na
               0.9237087    0.0937500    0.8887912 Na
               0.0487088    0.2187500    0.8887912 Na
               0.1737088    0.2187500    0.8887912 Na
               0.2987088    0.2187500    0.8887912 Na
               0.4237088    0.2187500    0.8887912 Na
               0.5487087    0.2187500    0.8887912 Na
               0.6737088    0.2187500    0.8887912 Na
               0.7987088    0.2187500    0.8887912 Na
               0.9237087    0.2187500    0.8887912 Na
               0.0487088    0.0937500    0.7637912 Na
               0.1737088    0.3437500    0.8887912 Na
               0.2987088    0.3437500    0.8887912 Na
               0.4237087    0.3437500    0.8887912 Na
               0.5487088    0.3437500    0.8887912 Na
               0.6737088    0.3437500    0.8887912 Na
               0.7987087    0.3437500    0.8887912 Na
               0.9237087    0.3437500    0.8887912 Na
               0.0487088    0.4687500    0.8887912 Na
               0.1737088    0.4687500    0.8887912 Na
               0.2987087    0.4687500    0.8887912 Na
               0.4237088    0.4687500    0.8887912 Na
               0.5487088    0.4687500    0.8887912 Na
               0.6737088    0.4687500    0.8887912 Na
               0.7987087    0.4687500    0.8887912 Na
               0.9237087    0.4687500    0.8887912 Na
               0.0487088    0.8437500    0.5137912 Na
               0.1737088    0.5937500    0.5137912 Na
               0.2987088    0.5937500    0.5137912 Na
               0.4237088    0.5937500    0.5137912 Na
               0.5487087    0.5937500    0.5137912 Na
               0.6737088    0.5937500    0.5137913 Na
               0.7987087    0.5937500    0.5137912 Na
               0.9237087    0.5937500    0.5137912 Na
               0.0487088    0.7187500    0.5137912 Na
               0.1737088    0.7187500    0.5137912 Na
               0.2987088    0.7187500    0.5137912 Na
               0.4237087    0.7187500    0.5137912 Na
               0.5487088    0.7187500    0.5137913 Na
               0.6737087    0.7187500    0.5137912 Na
               0.7987087    0.7187500    0.5137912 Na
               0.9237087    0.7187500    0.5137912 Na
               0.0487088    0.5937500    0.5137912 Na
               0.1737088    0.8437500    0.5137912 Na
               0.2987087    0.8437500    0.5137912 Na
               0.4237088    0.8437500    0.5137913 Na
               0.5487088    0.8437500    0.5137912 Na
               0.6737088    0.8437500    0.5137912 Na
               0.7987087    0.8437500    0.5137912 Na
               0.9237088    0.8437500    0.5137913 Na
               0.0487088    0.9687500    0.5137912 Na
               0.1737088    0.9687500    0.5137912 Na
               0.2987088    0.9687500    0.5137912 Na
               0.4237088    0.9687500    0.5137912 Na
               0.5487088    0.9687500    0.5137912 Na
               0.6737088    0.9687500    0.5137912 Na
               0.7987088    0.9687500    0.5137913 Na
               0.9237088    0.9687500    0.5137912 Na
               0.0487088    0.3437500    0.5137912 Na
               0.1737087    0.0937500    0.5137912 Na
               0.2987087    0.0937500    0.5137912 Na
               0.4237087    0.0937500    0.5137912 Na
               0.5487087    0.0937500    0.5137912 Na
               0.6737088    0.0937500    0.5137912 Na
               0.7987087    0.0937500    0.5137912 Na
               0.9237087    0.0937500    0.5137912 Na
               0.0487088    0.2187500    0.5137912 Na
               0.1737087    0.2187500    0.5137912 Na
               0.2987087    0.2187500    0.5137912 Na
               0.4237088    0.2187500    0.5137912 Na
               0.5487087    0.2187500    0.5137912 Na
               0.6737087    0.2187500    0.5137912 Na
               0.7987087    0.2187500    0.5137912 Na
               0.9237087    0.2187500    0.5137912 Na
               0.0487087    0.0937500    0.6387912 Na
               0.1737087    0.3437500    0.5137912 Na
               0.2987088    0.3437500    0.5137912 Na
               0.4237088    0.3437500    0.5137912 Na
               0.5487087    0.3437500    0.5137912 Na
               0.6737088    0.3437500    0.5137912 Na
               0.7987087    0.3437500    0.5137912 Na
               0.9237088    0.3437500    0.5137912 Na
               0.0487088    0.4687500    0.5137912 Na
               0.1737088    0.4687500    0.5137912 Na
               0.2987088    0.4687500    0.5137912 Na
               0.4237088    0.4687500    0.5137912 Na
               0.5487088    0.4687500    0.5137912 Na
               0.6737087    0.4687500    0.5137912 Na
               0.7987088    0.4687500    0.5137913 Na
               0.9237087    0.4687500    0.5137912 Na
               0.0487088    0.8437500    0.6387912 Na
               0.1737088    0.5937500    0.6387912 Na
               0.2987088    0.5937500    0.6387912 Na
               0.4237087    0.5937500    0.6387912 Na
               0.5487088    0.5937500    0.6387913 Na
               0.6737087    0.5937500    0.6387912 Na
               0.7987087    0.5937500    0.6387912 Na
               0.9237087    0.5937500    0.6387912 Na
               0.0487088    0.7187500    0.6387912 Na
               0.1737088    0.7187500    0.6387912 Na
               0.2987087    0.7187500    0.6387912 Na
               0.4237087    0.7187500    0.6387912 Na
               0.5487087    0.7187500    0.6387912 Na
               0.6737087    0.7187500    0.6387912 Na
               0.7987087    0.7187500    0.6387912 Na
               0.9237087    0.7187500    0.6387912 Na
               0.0487088    0.5937500    0.6387912 Na
               0.1737087    0.8437500    0.6387912 Na
               0.2987088    0.8437500    0.6387913 Na
               0.4237087    0.8437500    0.6387912 Na
               0.5487088    0.8437500    0.6387912 Na
               0.6737088    0.8437500    0.6387912 Na
               0.7987087    0.8437500    0.6387912 Na
               0.9237088    0.8437500    0.6387912 Na
               0.0487087    0.9687500    0.6387912 Na
               0.1737088    0.9687500    0.6387913 Na
               0.2987088    0.9687500    0.6387912 Na
               0.4237088    0.9687500    0.6387912 Na
               0.5487088    0.9687500    0.6387912 Na
               0.6737087    0.9687500    0.6387912 Na
               0.7987088    0.9687500    0.6387912 Na
               0.9237087    0.9687500    0.6387912 Na
               0.0487088    0.3437500    0.6387912 Na
               0.1737087    0.0937500    0.6387912 Na
               0.2987087    0.0937500    0.6387912 Na
               0.4237087    0.0937500    0.6387912 Na
               0.5487087    0.0937500    0.6387912 Na
               0.6737088    0.0937500    0.6387912 Na
               0.7987087    0.0937500    0.6387912 Na
               0.9237087    0.0937500    0.6387912 Na
               0.0487088    0.2187500    0.6387912 Na
               0.1737088    0.2187500    0.6387912 Na
               0.2987087    0.2187500    0.6387912 Na
               0.4237088    0.2187500    0.6387912 Na
               0.5487087    0.2187500    0.6387912 Na
               0.6737087    0.2187500    0.6387912 Na
               0.7987087    0.2187500    0.6387912 Na
               0.9237087    0.2187500    0.6387913 Na
               0.9062500    0.9862087    0.9512912 Na
               0.1737087    0.3437500    0.6387912 Na
               0.2987088    0.3437500    0.6387912 Na
               0.4237088    0.3437500    0.6387912 Na
               0.5487087    0.3437500    0.6387912 Na
               0.6737087    0.3437500    0.6387912 Na
               0.7987088    0.3437500    0.6387913 Na
               0.9237087    0.3437500    0.6387912 Na
               0.0487087    0.4687500    0.6387912 Na
               0.1737088    0.4687500    0.6387912 Na
               0.2987088    0.4687500    0.6387912 Na
               0.4237088    0.4687500    0.6387912 Na
               0.5487087    0.4687500    0.6387912 Na
               0.6737087    0.4687500    0.6387912 Na
               0.7987087    0.4687500    0.6387912 Na
               0.9237087    0.4687500    0.6387912 Na
               0.9062500    0.7362088    0.3262912 Na
               0.0312500    0.6112087    0.3262912 Na
               0.1562500    0.6112087    0.3262912 Na
               0.2812500    0.6112087    0.3262912 Na
               0.4062500    0.6112087    0.3262912 Na
               0.5312500    0.6112087    0.3262912 Na
               0.6562500    0.6112087    0.3262913 Na
               0.7812500    0.6112087    0.3262912 Na
               0.9062500    0.6112088    0.3262912 Na
               0.0312500    0.7362088    0.3262912 Na
               0.1562500    0.7362087    0.3262912 Na
               0.2812500    0.7362088    0.3262912 Na
               0.4062500    0.7362087    0.3262912 Na
               0.5312500    0.7362087    0.3262913 Na
               0.6562500    0.7362087    0.3262912 Na
               0.7812500    0.7362087    0.3262912 Na
               0.9062500    0.4862088    0.3262912 Na
               0.0312500    0.8612087    0.3262912 Na
               0.1562500    0.8612087    0.3262912 Na
               0.2812500    0.8612087    0.3262912 Na
               0.4062500    0.8612087    0.3262913 Na
               0.5312500    0.8612087    0.3262912 Na
               0.6562500    0.8612087    0.3262912 Na
               0.7812500    0.8612087    0.3262912 Na
               0.9062500    0.8612088    0.3262913 Na
               0.0312500    0.9862087    0.3262912 Na
               0.1562500    0.9862087    0.3262912 Na
               0.2812500    0.9862087    0.3262912 Na
               0.4062500    0.9862087    0.3262912 Na
               0.5312500    0.9862087    0.3262912 Na
               0.6562500    0.9862087    0.3262912 Na
               0.7812500    0.9862088    0.3262913 Na
               0.9062500    0.2362088    0.3262912 Na
               0.0312500    0.1112087    0.3262912 Na
               0.1562500    0.1112088    0.3262912 Na
               0.2812500    0.1112088    0.3262912 Na
               0.4062500    0.1112087    0.3262912 Na
               0.5312500    0.1112087    0.3262912 Na