Li72 Cl24 O24                           
    1.000000000000000     
     3.8696163085309285   -3.8695911509171252    0.0000343106454552
    -3.8959245572074490   -3.8959338392983165    3.8959208834568346
   -31.1552522683177067   -0.1980300580333735  -31.3532526726661374
   Li   Cl   O 
    72    24    24
Direct
  0.3072499793604370  0.3378270812531174  0.1389839454949273
  0.2978085540069246  0.3348827779059834  0.2618743648998338
  0.2997342890418616  0.3394954004093628  0.3877567306744646
  0.9575411672084179 -0.0116020544053594  0.0528348320446720
  0.9625711281835840 -0.0017760843969244  0.1782335829335911
  0.9610168876045873  0.0008790254317014  0.3026712748600330
  0.9661262582854496  0.0107162300657575  0.4281103590386568
  0.6241513468843551  0.6596196111547502  0.0931406325816805
  0.6258961710508016  0.6640172291004077  0.2190976310160151
  0.6166575372658594  0.6608888498197060  0.3419798440086635
  0.8049115632572322  0.3378614666368290  0.1389789082362669
  0.7968856699399365  0.3350968465208876  0.2618499722091722
  0.8027803349740273  0.3391409442459569  0.3877635400156635
  0.4650862202376205 -0.0115305998084067  0.0528330295951622
  0.4639793751106469 -0.0018062955754106  0.1782946786854897
  0.4601507735159485  0.0008106657237428  0.3026931872449064
  0.4588249311815000  0.0105802286257521  0.4281060394853519
  0.1211737951074276  0.6594238571364045  0.0931324982595827
  0.1266709258537103  0.6641857974957517  0.2190819093548327
  0.1188360061062927  0.6610633471608031  0.3419458064750422
  0.1267939867118406  0.6724816640122931  0.1566274316057177
  0.1233162129542913  0.6719902519999181  0.2808215015985354
  0.1065621690341083  0.6863614423033663  0.4016834029201910
  0.8170777967790225  0.3127038291190953  0.0792472290166227
  0.8007919552215598  0.3274790386071050  0.2001604632562551
  0.7972823929361436  0.3267208206907345  0.3243186033277493
  0.8180251659446026  0.3148706203799574  0.4544705346048244
  0.4620925458621211 -0.0033234190651919  0.1155962920087278
  0.4618563284100736 -0.0004242703266811  0.2404807831523091
  0.4610410498814409  0.0022548673401786  0.3653125472711274
  0.8049103581384064  0.6621362698820629  0.6389799459302600
  0.7968860528534653  0.6649052648835271  0.7618497047428991
  0.8027718526952053  0.6608644092050303  0.8877627056934321
  0.1211742079256459  0.3405754403385447  0.5931327980525373
  0.1266856780809014  0.3358166543235878  0.7190831850772269
  0.1188479688638186  0.3389300427455345  0.8419471382187024
  0.4650863198698279  0.0115251354228299  0.5528322301899852
  0.4639739678528946  0.0018103742815935  0.6782968683018618
  0.4601365171882533 -0.0008195638857306  0.8026913667202761
  0.4588262676379886 -0.0105747609471506  0.9281067507261824
  0.3072553726652268  0.6621733929427028  0.6389846811797332
  0.2978148990362838  0.6651143824224178  0.7618746994519876
  0.2997355055548130  0.6605041464473861  0.8877586907003986
  0.6241488059073460  0.3403806007791497  0.5931405320220379
  0.6259105123105585  0.3359757840345307  0.7190980939437034
  0.6166598723590273  0.3391078876422106  0.8419796518266605
  0.9575471745418761  0.0115999169892466  0.5528346126682265
  0.9625727520164604  0.0017796965321006  0.6782333500965320
  0.9610022809541650 -0.0008699627486825  0.8026711526796176
  0.9661242733721612 -0.0107172336241311  0.9281105441263425
  0.1268010711582066  0.3275216893322961  0.6566284408659948
  0.1233252141476564  0.3280108782314703  0.7808228442233438
  0.1065647238628765  0.3136391530491155  0.9016839408022170
  0.4620945487675650  0.0033271819892235  0.6155959673795323
  0.4618569454092573  0.0004205187978978  0.7404806631163013
  0.4610347615176533 -0.0022599548607203  0.8653126025268841
  0.8170846232649064  0.6873076781490943  0.5792484986729804
  0.8008030892433032  0.6725219337022007  0.7001611739897187
  0.7972914068034914  0.6732755835640581  0.8243185872163639
  0.8180263789106236  0.6851382751330531  0.9544711047500124
  0.8437322705910710  0.3531988574139990  0.0218195819696499
  0.4617138822406351  0.0465270573430940 -0.0095701820002670
  0.1060747081876583  0.6843253551388847  0.0264797510993997
  0.3306640281207834  0.3531170269812212  0.0218155206207684
  0.5923873503897753  0.3545835701428570  0.9590764444129481
  0.0794360174501062  0.3541057583276253  0.9590833275995861
  0.8437415993455980  0.6468045166131288  0.5218203849568284
  0.4617087729586444 -0.0465294196166084  0.4904290530189386
  0.1060743168406507  0.3156771883191941  0.5264799879905840
  0.3306672927639154  0.6468753944455805  0.5218149286125969
  0.5923966798182414  0.6454230724561836  0.4590764783497967
  0.0794437406445320  0.6458938374272694  0.4590836463796938
  0.3029767142473884  0.3303486525416493  0.0757423822158748
  0.2979270219373448  0.3320691508558771  0.1994300404383337
  0.2931859523173515  0.3328600060293622  0.3233133468826920
  0.2797791941882156  0.3335145116683934  0.4449606649561291
  0.9652470297118793 -0.0021831107055889  0.1162555389713970
  0.9619180028723460 -0.0003474604635065  0.2405006249179650
  0.9591076554702497  0.0013516774309929  0.3647701393140886
  0.6309417001474736  0.6660914222281021  0.1577208944458004
  0.6263642708830729  0.6671936268681551  0.2815545942015608
  0.6205017307266596  0.6685361422623433  0.4051640525234139
  0.3029802390057281  0.6696529980583570  0.5757434160079236
  0.2979285786029320  0.6679267039465626  0.6994298110231970
  0.2931840654897604  0.6671355393564956  0.8233137444330374
  0.2797725323172664  0.6664840507594370  0.9449600473143844
  0.6309415144248742  0.3339054815986918  0.6577212766491833
  0.6263606458800764  0.3328068257686986  0.7815542916702938
  0.6204916340355586  0.3314637687397682  0.9051627191556910
  0.9652440373214605  0.0021869131609894  0.6162560987327451
  0.9619145924543626  0.0003470254450320  0.7404999324276093
  0.9591096723286550 -0.0013505177396282  0.8647701799060520
 -0.0378466446538935 -0.0197983838491800 -0.0094679189978562
  0.6439396065513533  0.6653709530737975  0.0359868286604038
  0.6439445249851342  0.3346306823613836  0.5359869586057061
 -0.0378463579486128  0.0198029499032990  0.4905322373165536
  0.9681154582729531  0.4966470329199747  0.1170004367516336
  0.9621210887384807  0.4996249576546640  0.2404964360739547
  0.9557181038198751  0.5023822895358778  0.3639500311430098
  0.6319312568464361  0.1656089198843778  0.1579418803045712
  0.6283083389589220  0.1664080234229429  0.2821030943537255
  0.6302906119997148  0.1689249873320533  0.4075786155003552
  0.2935925425438378  0.8301549150622911  0.0733822491933632
  0.2954413541915941  0.8327823023611053  0.1988603400595715
  0.2920687661471805  0.8334682875095046  0.3230234996555915
  0.2852914803660668  0.8254716119717576  0.4463627045278232
  0.9681172335013771  0.5033517196428238  0.6170002839364603
  0.9621194496221700  0.5003756331132454  0.7404951374554137
  0.9557132776266545  0.4976186243276385  0.8639489871113221
  0.2935917333387603  0.1698432351828512  0.5733819077734776
  0.2954395170929727  0.1672139492513010  0.6988591956995693
  0.2920551715220336  0.1665308685732076  0.8230223636853364
  0.2852867899841715  0.1745294645333443  0.9463614292432851
  0.6319280294892539  0.8343898196198674  0.6579408051215823
  0.6283015402441798  0.8335903342967315  0.7821015268551367
  0.6302906807949734  0.8310760756452861  0.9075780541720450
  0.6384169046832450  0.1734712850028951  0.0346075941101363
 -0.0383347433692019  0.4644140514837314 -0.0095425879452601
  0.6384179049248642  0.8265260013479536  0.5346083729185639
 -0.0383339848104127  0.5355838017166237  0.4904587357487085
 
  0.00000000E+00 -0.00000000E+00  0.00000000E+00
  0.00000000E+00 -0.00000000E+00  0.00000000E+00
  0.00000000E+00 -0.00000000E+00  0.00000000E+00
  0.00000000E+00 -0.00000000E+00  0.00000000E+00
  0.00000000E+00 -0.00000000E+00  0.00000000E+00
  0.00000000E+00 -0.00000000E+00  0.00000000E+00
  0.00000000E+00 -0.00000000E+00  0.00000000E+00
  0.00000000E+00 -0.00000000E+00  0.00000000E+00
  0.00000000E+00 -0.00000000E+00  0.00000000E+00
  0.00000000E+00 -0.00000000E+00  0.00000000E+00
  0.00000000E+00 -0.00000000E+00  0.00000000E+00
  0.00000000E+00 -0.00000000E+00  0.00000000E+00
  0.00000000E+00 -0.00000000E+00  0.00000000E+00
  0.00000000E+00 -0.00000000E+00  0.00000000E+00
  0.00000000E+00 -0.00000000E+00  0.00000000E+00
  0.00000000E+00 -0.00000000E+00  0.00000000E+00
  0.00000000E+00 -0.00000000E+00  0.00000000E+00
  0.00000000E+00 -0.00000000E+00  0.00000000E+00
  0.00000000E+00 -0.00000000E+00  0.00000000E+00
  0.00000000E+00 -0.00000000E+00  0.00000000E+00
  0.00000000E+00 -0.00000000E+00  0.00000000E+00
  0.00000000E+00 -0.00000000E+00  0.00000000E+00
  0.00000000E+00 -0.00000000E+00  0.00000000E+00
  0.00000000E+00 -0.00000000E+00  0.00000000E+00
  0.00000000E+00 -0.00000000E+00  0.00000000E+00
  0.00000000E+00 -0.00000000E+00  0.00000000E+00
  0.00000000E+00 -0.00000000E+00  0.00000000E+00
  0.00000000E+00 -0.00000000E+00  0.00000000E+00
  0.00000000E+00 -0.00000000E+00  0.00000000E+00
  0.00000000E+00 -0.00000000E+00  0.00000000E+00
  0.00000000E+00 -0.00000000E+00  0.00000000E+00
  0.00000000E+00 -0.00000000E+00  0.00000000E+00
  0.00000000E+00 -0.00000000E+00  0.00000000E+00
  0.00000000E+00 -0.00000000E+00  0.00000000E+00
  0.00000000E+00 -0.00000000E+00  0.00000000E+00
  0.00000000E+00 -0.00000000E+00  0.00000000E+00
  0.00000000E+00 -0.00000000E+00  0.00000000E+00
  0.00000000E+00 -0.00000000E+00  0.00000000E+00
  0.00000000E+00 -0.00000000E+00  0.00000000E+00
  0.00000000E+00 -0.00000000E+00  0.00000000E+00
  0.00000000E+00 -0.00000000E+00  0.00000000E+00
  0.00000000E+00 -0.00000000E+00  0.00000000E+00
  0.00000000E+00 -0.00000000E+00  0.00000000E+00
  0.00000000E+00 -0.00000000E+00  0.00000000E+00
  0.00000000E+00 -0.00000000E+00  0.00000000E+00
  0.00000000E+00 -0.00000000E+00  0.00000000E+00
  0.00000000E+00 -0.00000000E+00  0.00000000E+00
  0.00000000E+00 -0.00000000E+00  0.00000000E+00
  0.00000000E+00 -0.00000000E+00  0.00000000E+00
  0.00000000E+00 -0.00000000E+00  0.00000000E+00
  0.00000000E+00 -0.00000000E+00  0.00000000E+00
  0.00000000E+00 -0.00000000E+00  0.00000000E+00
  0.00000000E+00 -0.00000000E+00  0.00000000E+00
  0.00000000E+00 -0.00000000E+00  0.00000000E+00
  0.00000000E+00 -0.00000000E+00  0.00000000E+00
  0.00000000E+00 -0.00000000E+00  0.00000000E+00
  0.00000000E+00 -0.00000000E+00  0.00000000E+00
  0.00000000E+00 -0.00000000E+00  0.00000000E+00
  0.00000000E+00 -0.00000000E+00  0.00000000E+00
  0.00000000E+00 -0.00000000E+00  0.00000000E+00
  0.00000000E+00 -0.00000000E+00  0.00000000E+00
  0.00000000E+00 -0.00000000E+00  0.00000000E+00
  0.00000000E+00 -0.00000000E+00  0.00000000E+00
  0.00000000E+00 -0.00000000E+00  0.00000000E+00
  0.00000000E+00 -0.00000000E+00  0.00000000E+00
  0.00000000E+00 -0.00000000E+00  0.00000000E+00
  0.00000000E+00 -0.00000000E+00  0.00000000E+00
  0.00000000E+00 -0.00000000E+00  0.00000000E+00
  0.00000000E+00 -0.00000000E+00  0.00000000E+00
  0.00000000E+00 -0.00000000E+00  0.00000000E+00
  0.00000000E+00 -0.00000000E+00  0.00000000E+00
  0.00000000E+00 -0.00000000E+00  0.00000000E+00
  0.00000000E+00 -0.00000000E+00  0.00000000E+00
  0.00000000E+00 -0.00000000E+00  0.00000000E+00
  0.00000000E+00 -0.00000000E+00  0.00000000E+00
  0.00000000E+00 -0.00000000E+00  0.00000000E+00
  0.00000000E+00 -0.00000000E+00  0.00000000E+00
  0.00000000E+00 -0.00000000E+00  0.00000000E+00
  0.00000000E+00 -0.00000000E+00  0.00000000E+00
  0.00000000E+00 -0.00000000E+00  0.00000000E+00
  0.00000000E+00 -0.00000000E+00  0.00000000E+00
  0.00000000E+00 -0.00000000E+00  0.00000000E+00
  0.00000000E+00 -0.00000000E+00  0.00000000E+00
  0.00000000E+00 -0.00000000E+00  0.00000000E+00
  0.00000000E+00 -0.00000000E+00  0.00000000E+00
  0.00000000E+00 -0.00000000E+00  0.00000000E+00
  0.00000000E+00 -0.00000000E+00  0.00000000E+00
  0.00000000E+00 -0.00000000E+00  0.00000000E+00
  0.00000000E+00 -0.00000000E+00  0.00000000E+00
  0.00000000E+00 -0.00000000E+00  0.00000000E+00
  0.00000000E+00 -0.00000000E+00  0.00000000E+00
  0.00000000E+00 -0.00000000E+00  0.00000000E+00
  0.00000000E+00 -0.00000000E+00  0.00000000E+00
  0.00000000E+00 -0.00000000E+00  0.00000000E+00
  0.00000000E+00 -0.00000000E+00  0.00000000E+00
  0.00000000E+00 -0.00000000E+00  0.00000000E+00
  0.00000000E+00 -0.00000000E+00  0.00000000E+00
  0.00000000E+00 -0.00000000E+00  0.00000000E+00
  0.00000000E+00 -0.00000000E+00  0.00000000E+00
  0.00000000E+00 -0.00000000E+00  0.00000000E+00
  0.00000000E+00 -0.00000000E+00  0.00000000E+00
  0.00000000E+00 -0.00000000E+00  0.00000000E+00
  0.00000000E+00 -0.00000000E+00  0.00000000E+00
  0.00000000E+00 -0.00000000E+00  0.00000000E+00
  0.00000000E+00 -0.00000000E+00  0.00000000E+00
  0.00000000E+00 -0.00000000E+00  0.00000000E+00
  0.00000000E+00 -0.00000000E+00  0.00000000E+00
  0.00000000E+00 -0.00000000E+00  0.00000000E+00
  0.00000000E+00 -0.00000000E+00  0.00000000E+00
  0.00000000E+00 -0.00000000E+00  0.00000000E+00
  0.00000000E+00 -0.00000000E+00  0.00000000E+00
  0.00000000E+00 -0.00000000E+00  0.00000000E+00
  0.00000000E+00 -0.00000000E+00  0.00000000E+00
  0.00000000E+00 -0.00000000E+00  0.00000000E+00
  0.00000000E+00 -0.00000000E+00  0.00000000E+00
  0.00000000E+00 -0.00000000E+00  0.00000000E+00
  0.00000000E+00 -0.00000000E+00  0.00000000E+00
  0.00000000E+00 -0.00000000E+00  0.00000000E+00
  0.00000000E+00 -0.00000000E+00  0.00000000E+00
  0.00000000E+00 -0.00000000E+00  0.00000000E+00
